100 20
5
54 69 8 34 19 79 60 92 29 37 93 38 90 67 82 49 39 61 28 99 74 94 69 33 46 84 6 94 67 72 14 66 61 66 17 28 46 45 95 80 14 5 71 60 74 51 0 50 0 13 74 93 29 35 26 64 10 81 52 30 77 64 93 36 40 25 67 10 29 64 48 71 13 82 7 73 55 95 11 31 30 23 89 0 54 31 6 12 26 55 90 39 77 14 3 26 0 34 0 74
706 853 876 742 1069 875 715 1192 864 1014 1015 899 1149 667 1264 908 375 671 838 880
0 0 0 0 0 0 0 82 0 0 0 14 0 86 0 0 0 0 94 0 0 21 0 0 0 0 0 0 0 0 0 0 0 0 0 0 0 0 90 0 17 37 0 0 0 0 0 0 0 0 22 0 0 68 51 0 0 0 0 0 0 0 0 0 0 0 0 48 51 0 0 0 0 0 0 0 0 47 0 0 0 0 0 0 0 25 0 0 37 0 0 0 0 0 0 0 0 0 0 0
0 0 0 0 91 0 96 0 0 0 0 0 0 93 0 0 0 0 0 0 0 0 0 86 0 0 0 0 0 0 0 0 0 36 0 0 0 0 0 0 0 0 94 0 0 0 0 0 0 0 0 0 0 0 0 0 0 0 0 0 0 0 0 73 0 0 0 0 0 0 0 0 0 0 0 22 0 0 0 0 0 0 0 0 52 0 73 0 0 0 0 0 0 0 0 0 66 53 0 0
0 0 0 0 0 0 58 0 10 0 0 0 0 0 37 0 0 0 79 0 0 97 27 0 0 0 0 0 12 0 0 24 0 0 0 0 45 0 62 0 0 51 0 0 0 64 0 69 0 0 0 2 0 0 0 0 0 0 48 0 0 0 0 65 0 40 0 0 0 36 0 0 0 0 0 0 94 0 63 0 0 0 0 0 0 0 0 0 0 0 0 0 0 0 97 0 8 0 0 0
0 0 50 86 0 0 0 0 0 0 0 0 44 0 0 0 0 0 0 0 0 0 0 0 0 0 0 0 0 0 0 0 0 0 0 82 7 0 0 0 0 0 0 0 0 0 0 0 0 0 0 0 0 0 36 48 0 0 0 0 0 0 4 0 90 0 0 97 64 0 0 0 0 0 0 0 0 0 0 0 0 0 96 0 0 0 2 0 0 0 0 57 0 0 0 0 0 0 24 0
0 0 91 75 0 0 13 28 0 0 0 83 0 0 0 0 26 0 76 0 25 70 0 0 0 0 0 0 0 0 85 0 0 0 0 0 0 0 70 0 86 0 0 0 0 12 98 0 0 0 0 49 0 0 0 0 0 0 0 0 0 0 0 0 0 0 0 0 0 0 87 0 0 0 0 0 8 0 0 92 0 0 0 0 0 46 0 2 0 0 0 0 26 12 0 0 0 0 0 0
0 0 0 0 0 54 0 0 0 0 0 0 7 0 0 0 0 0 0 0 0 0 0 0 1 0 0 0 0 0 2 0 0 0 0 0 83 0 0 14 67 0 0 11 0 0 0 0 0 0 62 0 74 0 57 0 0 0 0 0 0 88 0 0 0 0 11 0 47 81 0 36 91 0 0 0 0 0 0 39 0 0 0 0 0 0 0 0 17 1 0 86 0 0 0 0 0 0 0 0
0 0 0 0 0 0 0 0 0 7 0 0 0 0 0 56 0 0 28 0 18 0 14 86 0 62 0 0 0 0 0 0 0 0 49 0 0 35 0 0 0 0 0 0 0 1 0 0 0 0 0 0 0 0 0 94 84 0 0 0 0 0 0 0 0 0 87 0 0 0 0 0 43 0 0 99 0 0 0 0 0 43 0 0 0 0 0 0 0 0 0 0 22 0 0 0 0 0 0 0
0 0 0 0 72 0 0 0 0 53 75 0 0 0 0 0 0 0 0 0 0 0 0 0 0 0 87 0 0 40 77 0 0 0 0 0 0 0 96 0 0 0 0 66 0 0 0 46 0 31 0 0 0 0 8 86 0 0 0 0 0 0 0 0 77 74 8 86 0 0 0 5 0 0 0 85 0 0 0 0 99 73 92 0 0 0 0 0 0 0 0 11 6 0 0 0 0 78 0 0
31 0 0 0 8 0 0 0 0 0 0 0 0 0 0 0 0 65 0 0 0 11 0 0 0 0 67 16 0 0 0 0 93 0 0 0 0 0 0 0 15 11 0 73 0 31 0 0 0 0 0 0 0 0 0 0 12 0 0 0 85 0 0 0 68 0 0 0 0 0 0 45 0 0 0 0 0 0 0 34 87 0 0 0 0 0 0 0 0 80 91 0 0 0 0 0 0 0 0 0
83 0 50 0 0 0 0 71 0 7 0 25 0 96 0 0 0 0 0 0 0 0 0 0 0 67 0 0 0 0 16 0 0 0 48 68 0 0 91 0 0 0 0 0 0 0 0 0 0 6 0 0 0 65 0 9 0 91 0 0 0 0 0 87 0 0 0 1 0 0 31 15 0 0 0 0 0 0 23 0 28 0 6 0 0 0 0 0 67 0 0 36 0 0 31 47 0 0 48 85
0 0 0 0 0 0 0 0 46 69 0 0 0 0 0 0 0 0 0 0 75 0 63 0 0 0 0 0 0 0 0 97 0 70 0 0 46 0 0 0 0 52 58 0 85 0 0 19 0 0 0 72 46 82 0 1 0 0 0 0 0 0 0 0 0 0 0 64 0 0 0 0 0 9 74 0 0 0 0 0 32 0 0 0 0 0 0 0 0 13 0 0 0 0 0 65 0 0 0 0
0 75 24 0 0 0 0 0 0 0 19 0 0 0 0 0 0 0 0 0 0 0 0 0 63 0 12 0 0 0 0 0 0 0 0 0 0 94 0 97 0 57 0 0 0 0 0 0 0 0 20 0 0 21 0 0 0 8 0 0 0 45 0 0 0 59 0 0 0 60 0 0 0 0 0 99 2 0 53 0 0 0 87 0 0 0 0 0 0 79 0 73 2 0 0 9 0 0 0 0
0 0 0 0 38 0 3 0 0 0 0 0 0 0 0 0 0 0 0 47 0 0 0 0 0 0 0 0 0 0 0 0 0 0 0 0 0 0 86 0 0 0 0 93 92 46 0 0 57 0 0 58 0 0 0 55 0 0 71 33 0 53 0 0 0 0 0 0 68 50 0 78 0 0 0 0 0 0 0 0 91 0 51 0 30 0 89 0 0 0 0 73 0 0 0 6 0 0 0 58
0 0 0 0 0 0 0 24 0 0 0 54 69 0 0 0 0 0 0 0 48 22 0 0 96 0 0 0 0 0 57 0 0 0 0 0 0 62 0 0 0 0 0 0 0 0 0 0 0 0 56 0 0 45 0 0 0 0 0 0 0 0 0 0 0 0 0 0 31 0 0 0 0 0 47 0 0 0 0 0 0 0 0 6 0 0 16 99 0 27 0 0 0 0 0 0 0 0 0 0
0 79 0 0 0 0 0 0 0 0 0 0 0 78 0 0 0 0 0 0 0 25 77 97 0 0 97 51 0 32 0 62 0 76 0 98 0 69 84 0 0 0 0 0 16 0 27 0 81 0 0 0 0 13 0 0 0 0 0 0 0 23 0 0 45 37 0 0 0 0 0 0 0 0 0 0 0 0 53 61 42 21 0 0 0 0 0 0 66 0 26 0 0 0 0 53 0 43 0 1
0 0 0 0 40 35 0 0 0 96 0 0 34 0 0 0 0 0 0 0 22 0 0 0 0 0 0 0 0 0 0 3 20 0 0 0 0 0 0 0 0 0 16 75 0 0 85 0 66 0 0 3 0 33 0 0 0 0 0 0 0 58 0 0 83 0 0 0 84 0 0 0 0 0 0 0 0 0 0 0 0 2 0 13 0 0 0 35 0 0 68 0 62 89 76 0 0 0 0 0
0 0 0 0 26 0 0 0 0 0 0 0 0 0 48 0 0 0 0 0 0 0 0 0 0 0 0 0 0 0 0 0 0 44 0 0 0 0 0 0 0 0 0 47 29 0 0 0 19 0 0 0 0 0 0 0 0 0 0 0 0 0 0 81 0 0 0 18 0 0 0 0 0 0 0 0 0 0 0 0 94 0 0 0 0 0 0 0 0 0 0 0 0 0 0 0 0 0 0 46
0 0 28 0 11 0 0 0 0 0 0 0 0 0 0 0 22 46 0 0 0 0 0 0 41 15 0 0 0 0 0 0 0 0 0 0 0 0 0 0 15 0 0 0 0 0 48 0 0 0 28 0 44 0 0 0 0 19 0 0 0 0 0 0 0 0 12 0 0 0 0 0 28 0 0 89 0 0 0 0 0 0 0 0 0 10 0 0 0 0 0 0 0 0 28 0 82 85 0 0
0 0 0 0 11 0 0 0 0 0 76 0 0 0 75 0 0 10 0 0 0 0 0 55 0 0 0 0 0 0 0 0 0 0 15 84 0 76 0 0 0 17 2 0 47 86 41 0 0 0 0 0 0 0 0 0 0 0 0 0 0 0 0 52 0 0 0 0 0 0 0 0 0 51 63 0 0 29 0 21 0 0 0 0 0 0 0 0 0 0 0 0 0 0 0 0 86 0 0 0
8 19 0 70 0 0 0 0 0 0 0 0 0 0 75 0 0 77 0 0 0 0 0 0 0 0 8 0 0 0 0 0 0 66 0 0 0 5 0 0 0 0 0 0 0 34 19 0 0 0 61 0 0 0 87 4 0 99 0 0 37 0 0 0 0 0 0 0 0 0 0 88 0 0 0 0 0 0 0 0 0 0 0 34 75 0 0 0 0 0 0 75 0 0 0 0 0 0 31 0
0 0 0 0 0 0 0 46 0 0 0 13 0 78 0 0 0 0 48 0 0 1 0 0 0 0 0 0 0 0 0 0 0 0 0 0 0 0 11 0 2 13 0 0 0 0 0 0 0 0 7 0 0 25 23 0 0 0 0 0 0 0 0 0 0 0 0 15 42 0 0 0 0 0 0 0 0 12 0 0 0 0 0 0 0 22 0 0 27 0 0 0 0 0 0 0 0 0 0 0
0 0 0 0 85 0 75 0 0 0 0 0 0 74 0 0 0 0 0 0 0 0 0 13 0 0 0 0 0 0 0 0 0 19 0 0 0 0 0 0 0 0 59 0 0 0 0 0 0 0 0 0 0 0 0 0 0 0 0 0 0 0 0 16 0 0 0 0 0 0 0 0 0 0 0 8 0 0 0 0 0 0 0 0 51 0 38 0 0 0 0 0 0 0 0 0 50 34 0 0
0 0 0 0 0 0 27 0 4 0 0 0 0 0 19 0 0 0 62 0 0 21 0 0 0 0 0 0 6 0 0 11 0 0 0 0 22 0 32 0 0 5 0 0 0 11 0 7 0 0 0 0 0 0 0 0 0 0 7 0 0 0 0 38 0 36 0 0 0 33 0 0 0 0 0 0 53 0 25 0 0 0 0 0 0 0 0 0 0 0 0 0 0 0 56 0 0 0 0 0
0 0 36 61 0 0 0 0 0 0 0 0 22 0 0 0 0 0 0 0 0 0 0 0 0 0 0 0 0 0 0 0 0 0 0 55 5 0 0 0 0 0 0 0 0 0 0 0 0 0 0 0 0 0 32 42 0 0 0 0 0 0 3 0 28 0 0 75 8 0 0 0 0 0 0 0 0 0 0 0 0 0 38 0 0 0 0 0 0 0 0 14 0 0 0 0 0 0 4 0
0 0 37 45 0 0 9 4 0 0 0 24 0 0 0 0 7 0 53 0 19 52 0 0 0 0 0 0 0 0 71 0 0 0 0 0 0 0 28 0 59 0 0 0 0 1 96 0 0 0 0 45 0 0 0 0 0 0 0 0 0 0 0 0 0 0 0 0 0 0 48 0 0 0 0 0 3 0 0 64 0 0 0 0 0 31 0 1 0 0 0 0 18 6 0 0 0 0 0 0
0 0 0 0 0 16 0 0 0 0 0 0 6 0 0 0 0 0 0 0 0 0 0 0 0 0 0 0 0 0 1 0 0 0 0 0 77 0 0 9 27 0 0 10 0 0 0 0 0 0 20 0 6 0 45 0 0 0 0 0 0 85 0 0 0 0 7 0 30 27 0 26 35 0 0 0 0 0 0 33 0 0 0 0 0 0 0 0 1 0 0 74 0 0 0 0 0 0 0 0
0 0 0 0 0 0 0 0 0 1 0 0 0 0 0 47 0 0 16 0 10 0 6 44 0 23 0 0 0 0 0 0 0 0 28 0 0 10 0 0 0 0 0 0 0 0 0 0 0 0 0 0 0 0 0 35 46 0 0 0 0 0 0 0 0 0 34 0 0 0 0 0 4 0 0 57 0 0 0 0 0 26 0 0 0 0 0 0 0 0 0 0 11 0 0 0 0 0 0 0
0 0 0 0 12 0 0 0 0 25 17 0 0 0 0 0 0 0 0 0 0 0 0 0 0 0 42 0 0 16 9 0 0 0 0 0 0 0 44 0 0 0 0 14 0 0 0 10 0 28 0 0 0 0 0 46 0 0 0 0 0 0 0 0 36 40 6 44 0 0 0 0 0 0 0 38 0 0 0 0 94 70 48 0 0 0 0 0 0 0 0 8 5 0 0 0 0 75 0 0
14 0 0 0 3 0 0 0 0 0 0 0 0 0 0 0 0 21 0 0 0 3 0 0 0 0 15 9 0 0 0 0 29 0 0 0 0 0 0 0 10 7 0 39 0 14 0 0 0 0 0 0 0 0 0 0 8 0 0 0 46 0 0 0 34 0 0 0 0 0 0 37 0 0 0 0 0 0 0 29 78 0 0 0 0 0 0 0 0 52 89 0 0 0 0 0 0 0 0 0
72 0 25 0 0 0 0 21 0 5 0 4 0 24 0 0 0 0 0 0 0 0 0 0 0 26 0 0 0 0 5 0 0 0 1 32 0 0 39 0 0 0 0 0 0 0 0 0 0 0 0 0 0 48 0 5 0 52 0 0 0 0 0 55 0 0 0 0 0 0 1 1 0 0 0 0 0 0 16 0 15 0 3 0 0 0 0 0 42 0 0 13 0 0 14 13 0 0 16 13
0 0 0 0 0 0 0 0 3 65 0 0 0 0 0 0 0 0 0 0 60 0 41 0 0 0 0 0 0 0 0 85 0 5 0 0 22 0 0 0 0 4 45 0 50 0 0 12 0 0 0 2 29 79 0 0 0 0 0 0 0 0 0 0 0 0 0 24 0 0 0 0 0 1 1 0 0 0 0 0 30 0 0 0 0 0 0 0 0 2 0 0 0 0 0 37 0 0 0 0
0 45 1 0 0 0 0 0 0 0 5 0 0 0 0 0 0 0 0 0 0 0 0 0 23 0 3 0 0 0 0 0 0 0 0 0 0 49 0 54 0 17 0 0 0 0 0 0 0 0 1 0 0 7 0 0 0 7 0 0 0 6 0 0 0 26 0 0 0 40 0 0 0 0 0 65 0 0 52 0 0 0 52 0 0 0 0 0 0 10 0 39 1 0 0 8 0 0 0 0
0 0 0 0 27 0 0 0 0 0 0 0 0 0 0 0 0 0 0 24 0 0 0 0 0 0 0 0 0 0 0 0 0 0 0 0 0 0 82 0 0 0 0 77 28 25 0 0 47 0 0 6 0 0 0 23 0 0 6 29 0 11 0 0 0 0 0 0 55 3 0 28 0 0 0 0 0 0 0 0 63 0 14 0 14 0 78 0 0 0 0 66 0 0 0 0 0 0 0 12
0 0 0 0 0 0 0 1 0 0 0 25 16 0 0 0 0 0 0 0 36 12 0 0 20 0 0 0 0 0 55 0 0 0 0 0 0 39 0 0 0 0 0 0 0 0 0 0 0 0 46 0 0 19 0 0 0 0 0 0 0 0 0 0 0 0 0 0 25 0 0 0 0 0 6 0 0 0 0 0 0 0 0 5 0 0 15 49 0 15 0 0 0 0 0 0 0 0 0 0
0 65 0 0 0 0 0 0 0 0 0 0 0 0 0 0 0 0 0 0 0 7 76 82 0 0 44 21 0 7 0 3 0 48 0 59 0 66 51 0 0 0 0 0 1 0 8 0 71 0 0 0 0 4 0 0 0 0 0 0 0 0 0 0 9 23 0 0 0 0 0 0 0 0 0 0 0 0 3 29 9 18 0 0 0 0 0 0 2 0 22 0 0 0 0 17 0 4 0 0
0 0 0 0 27 4 0 0 0 16 0 0 22 0 0 0 0 0 0 0 9 0 0 0 0 0 0 0 0 0 0 0 8 0 0 0 0 0 0 0 0 0 11 40 0 0 43 0 47 0 0 2 0 25 0 0 0 0 0 0 0 10 0 0 65 0 0 0 41 0 0 0 0 0 0 0 0 0 0 0 0 1 0 3 0 0 0 31 0 0 24 0 40 10 58 0 0 0 0 0
0 0 0 0 23 0 0 0 0 0 0 0 0 0 25 0 0 0 0 0 0 0 0 0 0 0 0 0 0 0 0 0 0 37 0 0 0 0 0 0 0 0 0 11 21 0 0 0 2 0 0 0 0 0 0 0 0 0 0 0 0 0 0 7 0 0 0 13 0 0 0 0 0 0 0 0 0 0 0 0 17 0 0 0 0 0 0 0 0 0 0 0 0 0 0 0 0 0 0 0
0 0 15 0 10 0 0 0 0 0 0 0 0 0 0 0 16 41 0 0 0 0 0 0 11 10 0 0 0 0 0 0 0 0 0 0 0 0 0 0 5 0 0 0 0 0 37 0 0 0 17 0 38 0 0 0 0 4 0 0 0 0 0 0 0 0 2 0 0 0 0 0 16 0 0 28 0 0 0 0 0 0 0 0 0 6 0 0 0 0 0 0 0 0 1 0 76 82 0 0
0 0 0 0 4 0 0 0 0 0 35 0 0 0 65 0 0 2 0 0 0 0 0 47 0 0 0 0 0 0 0 0 0 0 9 69 0 42 0 0 0 1 0 0 25 48 19 0 0 0 0 0 0 0 0 0 0 0 0 0 0 0 0 10 0 0 0 0 0 0 0 0 0 31 3 0 0 8 0 6 0 0 0 0 0 0 0 0 0 0 0 0 0 0 0 0 75 0 0 0
4 6 0 12 0 0 0 0 0 0 0 0 0 0 66 0 0 37 0 0 0 0 0 0 0 0 7 0 0 0 0 0 0 44 0 0 0 4 0 0 0 0 0 0 0 33 2 0 0 0 55 0 0 0 11 3 0 44 0 0 4 0 0 0 0 0 0 0 0 0 0 87 0 0 0 0 0 0 0 0 0 0 0 29 39 0 0 0 0 0 0 13 0 0 0 0 0 0 27 0
